peakDumbCharging = 7400; 
Machine = anon_enum(16); 
machineSpeed = [3700,3700,3700,3700,3700,3700,3700,3700,3700,3700,3700,3700,3700,3700,3700,3700]; 
machineLoad = [3700,3700,3700,3700,3700,3700,3700,3700,3700,3700,3700,3700,3700,3700,3700,3700]; 
Car = anon_enum(6); 
demandCar = [10440,6120,12720,22040,12320,5200]; 
arrivalCar = [77,72,61,57,51,43]; 
departureCar = [81,76,66,72,55,45]; 
